c ---- [ banner ] ------------------------------------------------------------
c
c Kissat SAT Solver
c 
c Copyright (c) 2021-2024 Armin Biere University of Freiburg
c Copyright (c) 2019-2021 Armin Biere Johannes Kepler University Linz
c 
c Version 4.0.4 local-manual-build
c gcc.exe 13.1.0 -O3 -DNDEBUG
c Windows manual local build
c
c ---- [ parsing ] -----------------------------------------------------------
c
c opened and reading DIMACS file:
c
c   D:\Projects\carrollian\data\evidence\ss_sat\benchmarks\scaled\php_5_4.cnf
c
c parsed 'p cnf 20 45' header
c closing input after reading 472 bytes
c finished parsing after 0.00 seconds
c
c ---- [ solving ] -----------------------------------------------------------
c
c seconds switched rate     size/glue tier1 binary   remaining
c        MB reductions conflicts size  tier2 irredundant
c         level restarts redundant glue  trail   variables
c
c *  0.00  0 0 0 0  0 0   0   0 0.0 0 0 0 0 0%  40  5 20 100%
c caught signal 11 (SIGSEGV)
c
c ---- [ profiling ] ---------------------------------------------------------
c
c           0.00    0.00 %  search
c           0.00    0.00 %  simplify
c =============================================
c           0.00    0.00 %  total
c
c ---- [ statistics ] --------------------------------------------------------
c
c conflicts:                                0                0.00 per second
c decisions:                                0                0.00 per conflict
c propagations:                             0                0    per second
c switched:                                 0                0    interval
c
c ---- [ glue usage ] --------------------------------------------------------
c
c no clauses used at all
c
c ---- [ resources ] ---------------------------------------------------------
c
c maximum-resident-set-size:                0 bytes          0 MB
c process-time:                             0s               0.00 seconds
c raising signal 11 (SIGSEGV)
